benchmarks/NIA/2018.sorin/_source/S5/s5auto.desugared.sol
i==2*k*j
